(set-option :incremental false)
(set-info :category "crafted")
(set-logic ALL)
(declare-const BAV1 Bool)
(declare-const BAV2 Bool)
(declare-const BAV3 Bool)
(declare-const BAV4 Bool)
(declare-const BAV5 Bool)
(declare-const BAV6 Bool)
(declare-sort U 0)
(declare-fun x () U)
(declare-fun y () U)
(declare-fun z () U)
(declare-fun f (U) U)
(declare-fun g (U) U)
(declare-fun H (U U) U)
(declare-fun J (U U) U)
(assert (= BAV1 (and (= (f x) (f z)) (= (g y) (g z)) (or (not (= x z)) (not (= y z))))))
(assert (= BAV2 (= (f x) (f z))))
(assert (= BAV3 (= (g y) (g z))))
(assert (= BAV4 (or (not (= x z)) (not (= y z)))))
(assert (= BAV5 (= x z)))
(assert (= BAV6 (= y z)))
(check-sat-assuming ((and (= (f x) (f z)) (= (g y) (g z)) (or (not (= x z)) (not (= y z))))))
(get-model)